Optimal - objective value 1043.00000000
     15 x(15)                  1                       0
     23 x(23)                  1                       0
     29 x(29)                  1                       0
     36 x(36)                  1                       0
     48 x(48)                  1                       0
     49 x(49)                  1                       0
     54 x(54)                  1                       0
     66 x(66)                  1                      -5
     75 x(75)                  1                       0
     95 x(95)                  1                       1
     98 x(98)                  1                       0
     99 x(99)                  1                       0
    106 x(106)                 1                       0
    110 x(110)                 1                       0
    120 x(120)                 1                       0
    138 x(138)                 1                       0
    142 x(142)                 1                       0
    148 x(148)                 1                       0
    154 x(154)                 1                       0
    161 x(161)                 1                       0
    171 x(171)                 1                       0
    177 x(177)                 1                      22
    180 x(180)                 1                       9
    183 x(183)                 1                       0
    189 x(189)                 1                       0
